c User generated cnf file
p cnf 13 51
12 -10 6 0 
6 -10 13 0 
9 2 -11 0 
10 -6 6 0 
4 11 -7 0 
7 -12 4 0 
4 5 -9 0 
1 11 -7 0 
13 -8 10 0 
13 -1 1 0 
1 7 -2 0 
13 9 -6 0 
10 8 -3 0 
12 4 -11 0 
6 2 -1 0 
1 3 -13 0 
13 -9 13 0 
10 -1 7 0 
13 7 -9 0 
8 9 -7 0 
3 -12 10 0 
6 12 -10 0 
6 -13 9 0 
9 4 -2 0 
7 -10 6 0 
6 -5 11 0 
1 -6 11 0 
3 5 -13 0 
2 -11 9 0 
4 9 -12 0 
4 -10 13 0 
13 8 -3 0 
10 8 -4 0 
12 10 -8 0 
3 -1 1 0 
2 3 -11 0 
12 -10 3 0 
2 10 -13 0 
4 -8 4 0 
4 -4 5 0 
13 2 -3 0 
12 13 -8 0 
10 -6 5 0 
1 6 -11 0 
13 1 -2 0 
4 11 -1 0 
6 6 -11 0 
7 -9 12 0 
4 -7 6 0 
8 12 -4 0 
6 9 -2 0 
